NAME : grid
TYPE : TSP
DIMENSION : 50
EDGE_WEIGHT_TYPE : EUC_2D
NODE_COORD_SECTION
1 937083 193831
2 914703 954292
3 311729 426874
4 402603 205898
5 656007 6964
6 688602 668845
7 857113 91170
8 67330 549949
9 866287 937937
10 65716 870630
11 575300 456128
12 939609 449442
13 853491 159979
14 333502 260236
15 492290 731131
16 194735 658956
17 530321 66828
18 654044 807538
19 78525 427242
20 801101 665577
21 257841 683583
22 876007 396451
23 913058 37244
24 689171 806931
25 962652 140860
26 579328 633404
27 126112 856235
28 997326 670823
29 650656 355611
30 575300 159979
31 45963 498513
32 377048 997950
33 562143 556294
34 691365 219897
35 878603 787522
36 874542 951519
37 658412 751233
38 629895 985597
39 853491 456128
40 494919 598799
41 137065 150055
42 856640 677714
43 757571 58582
44 277253 311687
45 467477 279659
46 590253 806837
47 824354 633404
48 114753 943658
49 249998 315514
50 951572 887942
EOF
